120
150
50
55
51
57
45
53
42
46
51
53
57
40
51
53
60
47
41
60
45
53
46
51
43
45
55
40
55
44
60
46
57
47
46
49
42
59
46
55
60
49
50
43
58
52
55
56
49
52
55
43
50
55
42
53
57
40
45
47
46
49
57
53
57
44
54
54
44
42
46
60
57
46
40
47
55
52
49
53
43
48
46
48
56
43
43
43
56
50
49
44
59
57
49
52
55
60
60
55
42
51
44
46
60
55
53
53
53
42
43
44
49
44
44
42
57
60
60
44
55
58
